Zr1 Ti1 H1 S1 N1 O1
1.0
   3.1992187500000000    0.0000000000000000    0.0000000000000002
  -1.5996093761779351    2.7706054711857453    0.0000000000000002
   0.0000000000000000    0.0000000000000000   30.0000000000000000
Zr Ti H S N O
1 1 1 1 1 1
direct
   0.9145906000000000    0.0824807100000000    0.5271655900000000 Zr
   0.5816698100000000    0.4169657200000000    0.4452897000000000 Ti
   0.5834227800000000    0.4160801800000000    0.6056991200000000 H
   0.2463498300000000    0.7504741500000000    0.3943009100000000 S
   0.2474993200000000    0.7491249400000000    0.4894254200000000 N
   0.5827738000000000    0.4161023800000000    0.5732015400000000 O
